\ This file was automatically generated by Zimpl
\ set c := {1 to 3};
\ set p := {1, 2};
\ set cp := c * p;
\ param T[p] := <1> 2000, <2> 8000;
\ param CP[cp] :=                  <1,1> 1, <1,2> 3,                 <2,1> 1, <2,2> 4.5,                 <3,1> 2, <3,2> 1;
\ param L[c] := <1> 5, <2> 7 , <3> 8;
\ var X[c] >= 0;
\ maximize lucro :      sum <cx> in c :         L[cx] * X[cx];
\ subto  c1:     forall <px> in p:         sum <cx> in c:             CP[cx, px] * X[cx] <= T[px];
\Problem name: file
Maximize
 lucro:  +5 X#1 +7 X#2 +8 X#3
Subject to
 c1_1:
  +2 X#3 + X#2 + X#1 <= 2000
 c1_2:
  + X#3 +4.5 X#2 +3 X#1 <= 8000
Bounds
 0 <= X#1 <= +inf
 0 <= X#2 <= +inf
 0 <= X#3 <= +inf
End
